unsat
(:max-memory         18.42
 :memory             18.42
 :nlsat-arith-var    3
 :nlsat-atoms        13
 :nlsat-bool-var     2
 :nlsat-clauses      10
 :nlsat-conflicts    2
 :nlsat-propagations 7
 :nlsat-stages       2
 :num-allocs         40700
 :rlimit-count       2883
 :time               0.00
 :total-time         0.02)
